Version identifier: 12.10.0.0 | 2019-11-26 | 843d4de
CPXPARAM_WorkMem                                 16384
CPXPARAM_MIP_Limits_TreeMemory                   24576
Tried aggregator 2 times.
MIP Presolve modified 195 coefficients.
Aggregator did 75 substitutions.
Reduced MIP has 395 rows, 450 columns, and 1910 nonzeros.
Reduced MIP has 450 binaries, 0 generals, 0 SOSs, and 0 indicators.
Presolve time = 0,00 sec. (2,69 ticks)
Found incumbent of value 1385,000000 after 0,01 sec. (4,02 ticks)
Probing time = 0,00 sec. (0,97 ticks)
Tried aggregator 1 time.
Detecting symmetries...
MIP Presolve eliminated 75 rows and 0 columns.
MIP Presolve added 150 rows and 0 columns.
Reduced MIP has 470 rows, 450 columns, and 1985 nonzeros.
Reduced MIP has 450 binaries, 0 generals, 0 SOSs, and 0 indicators.
Presolve time = 0,00 sec. (2,49 ticks)
Probing time = 0,00 sec. (0,95 ticks)
Clique table members: 1400.
MIP emphasis: balance optimality and feasibility.
MIP search method: dynamic search.
Parallel mode: deterministic, using up to 16 threads.
Root relaxation solution time = 0,01 sec. (4,90 ticks)

        Nodes                                         Cuts/
   Node  Left     Objective  IInf  Best Integer    Best Bound    ItCnt     Gap

*     0+    0                         1385,0000        0,0000           100,00%
*     0+    0                          906,0000        0,0000           100,00%
*     0+    0                          876,0000        0,0000           100,00%
      0     0      385,0000   369      876,0000      385,0000      380   56,05%
*     0+    0                          856,0000      385,0000            55,02%
      0     0      386,4977   369      856,0000     Cuts: 217      552   54,85%
      0     0      392,5353   369      856,0000     Cuts: 217      721   54,14%
*     0+    0                          799,0000      392,5353            50,87%
      0     0      395,2086   369      799,0000     Cuts: 189      843   50,54%
      0     0      396,1634   369      799,0000     Cuts: 112      969   50,42%
      0     0      397,2011   369      799,0000     Cuts: 201     1096   50,29%
      0     0      443,9560   369      799,0000     Cuts: 217     1451   44,44%
      0     0      446,1135   369      799,0000     Cuts: 199     1559   44,17%
      0     0      447,5310   369      799,0000     Cuts: 153     1690   43,99%
      0     0      448,3697   369      799,0000     Cuts: 112     1808   43,88%
      0     0      449,2092   369      799,0000     Cuts: 135     1930   43,78%
      0     0      450,3001   369      799,0000     Cuts: 104     2051   43,64%
*     0+    0                          798,0000      450,3001            43,57%
      0     0      450,8590   369      798,0000      Cuts: 98     2164   43,50%
      0     0      452,0182   369      798,0000      Cuts: 96     2294   43,36%
      0     0      452,7634   369      798,0000     Cuts: 111     2419   43,26%
      0     0      453,2893   369      798,0000      Cuts: 65     2534   43,20%
*     0+    0                          792,0000      453,2893            42,77%
      0     0      453,8206   369      792,0000     Cuts: 113     2657   42,70%
      0     0      456,6757   369      792,0000      Cuts: 85     2854   42,34%
      0     0      457,5869   369      792,0000     Cuts: 152     2990   42,22%
      0     0      458,5341   369      792,0000     Cuts: 121     3128   42,10%
      0     0      459,1066   369      792,0000     Cuts: 124     3238   39,06%
      0     0      459,6774   369      792,0000     Cuts: 144     3372   39,06%
      0     2      459,6774   423      792,0000      515,9556     3372   34,85%
Elapsed time = 1,05 sec. (720,70 ticks, tree = 0,02 MB, solutions = 7)
*   432+  263                          786,0000      515,9556            34,36%
   2787  1771      691,1667    47      786,0000      515,9556    69278   34,36%

Performing restart 1

Repeating presolve.
Tried aggregator 2 times.
MIP Presolve eliminated 61 rows and 27 columns.
MIP Presolve added 48 rows and 0 columns.
MIP Presolve modified 24 coefficients.
Aggregator did 8 substitutions.
Reduced MIP has 449 rows, 411 columns, and 1764 nonzeros.
Reduced MIP has 411 binaries, 0 generals, 0 SOSs, and 0 indicators.
Presolve time = 0,01 sec. (2,57 ticks)
Tried aggregator 1 time.
Reduced MIP has 449 rows, 411 columns, and 1764 nonzeros.
Reduced MIP has 411 binaries, 0 generals, 0 SOSs, and 0 indicators.
Presolve time = 0,00 sec. (1,49 ticks)
Represolve time = 0,03 sec. (15,93 ticks)
   4480     0      462,5953   411      786,0000      Cuts: 95   140091   29,31%
   4480     0      464,5782   411      786,0000      Cuts: 96   140284   29,31%
   4480     0      465,7089   411      786,0000      Cuts: 72   140462   29,31%
   4480     0      466,5028   411      786,0000      Cuts: 66   140585   29,31%
   4480     2      466,5028   411      786,0000      555,6336   140585   29,31%
   4488     6      535,1564   313      786,0000      555,6336   141975   29,31%
   5427   659      653,2829   309      786,0000      555,6336   173020   29,31%
   6238  1328      576,2771   366      786,0000      555,6336   205976   29,31%
   7360  2256      781,9479   154      786,0000      555,6336   246940   29,31%
   8463  3094      643,4607   317      786,0000      555,6336   285965   29,31%
   9543  4270      558,4996   367      786,0000      555,6336   331284   29,31%

Performing restart 2

Repeating presolve.
Tried aggregator 1 time.
Reduced MIP has 449 rows, 411 columns, and 1764 nonzeros.
Reduced MIP has 411 binaries, 0 generals, 0 SOSs, and 0 indicators.
Presolve time = 0,00 sec. (1,06 ticks)
Tried aggregator 1 time.
Reduced MIP has 449 rows, 411 columns, and 1764 nonzeros.
Reduced MIP has 411 binaries, 0 generals, 0 SOSs, and 0 indicators.
Presolve time = 0,00 sec. (1,49 ticks)
Represolve time = 0,03 sec. (17,71 ticks)
  10331     0      471,2421   411      786,0000      Cuts: 99   377096   29,31%
  10331     0      472,3051   411      786,0000      Cuts: 98   377242   29,31%
  10331     0      472,9440   411      786,0000      Cuts: 78   377340   29,31%
  10331     0      473,3006   411      786,0000      Cuts: 59   377468   29,31%
  10331     0      473,6493   411      786,0000     Cuts: 101   377602   29,31%
  10331     0      473,9603   411      786,0000      Cuts: 68   377738   29,31%
  10331     2      473,9603   411      786,0000      555,6336   377738   29,31%
  17510  5095      732,5686   131      786,0000      616,8147   648126   21,52%
Elapsed time = 6,60 sec. (5415,78 ticks, tree = 3,09 MB, solutions = 8)
  24932 10051      775,7778    54      786,0000      646,1501   922942   17,79%
  32856 14458      760,1667    45      786,0000      668,0873  1139883   15,00%
  40144 18931      763,6366   206      786,0000      683,5714  1379920   13,03%
  46780 22258      756,3024   197      786,0000      694,0833  1620367   11,69%
  53969 25057      776,2061    91      786,0000      703,3619  1843583   10,51%
  61308 27309      754,5644   146      786,0000      711,1526  2046043    9,52%
  68185 29257        cutoff            786,0000      718,1270  2268735    8,64%
  74907 30242      773,6400   183      786,0000      724,8034  2501665    7,79%
  81872 30863      756,6315   205      786,0000      730,6762  2768351    7,04%
  88840 30664      781,0083   217      786,0000      737,6480  3006828    6,15%
Elapsed time = 18,17 sec. (14954,23 ticks, tree = 156,30 MB, solutions = 8)
* 90206 30345      integral     0      784,0000      738,8941  3090059    5,75%
  95943 28620        cutoff            784,0000      745,1765  3278161    4,95%
 103376 25191        cutoff            784,0000      752,8254  3525317    3,98%
 112252 18896        cutoff            784,0000      761,9967  3805591    2,81%
 126669  5674        cutoff            784,0000      775,3951  4123247    1,10%

Clique cuts applied:  15
Cover cuts applied:  656
Flow cuts applied:  6
Mixed integer rounding cuts applied:  222
Zero-half cuts applied:  102
Lift and project cuts applied:  51
Gomory fractional cuts applied:  6

Root node processing (before b&c):
  Real time             =    1,04 sec. (718,66 ticks)
Parallel b&c, 16 threads:
  Real time             =   23,75 sec. (18275,26 ticks)
  Sync time (average)   =    5,64 sec.
  Wait time (average)   =    0,01 sec.
                          ------------
Total (root+branch&cut) =   24,79 sec. (18993,92 ticks)
